<?xml version = "1.0" encoding="UTF-8" standalone="yes"?>
<CPLEXSolution version="1.2">
 <header
   problemName="IloCplex"
   solutionName="p0"
   solutionIndex="-1"
   objectiveValue="-1772385"
   solutionTypeValue="3"
   solutionTypeString="primal"
   solutionStatusValue="127"
   solutionStatusString="integer feasible solution"
   solutionMethodString="mip"
   primalFeasible="0"
   dualFeasible="0"
   writeLevel="3"/>
 <quality
   epInt="1.0000000000000001e-05"
   epRHS="9.9999999999999995e-07"
   maxIntInfeas="0"
   maxPrimalInfeas="0"
   maxX="1"
   maxSlack="1"/>
 <variables>
  <variable name="w2_3" index="29" value="1"/>
  <variable name="w2_4" index="30" value="1"/>
  <variable name="w2_8" index="34" value="1"/>
  <variable name="w2_10" index="36" value="1"/>
  <variable name="w2_12" index="38" value="1"/>
  <variable name="x0_115" index="284" value="1"/>
  <variable name="x1_284" index="1053" value="1"/>
  <variable name="x2_275" index="1644" value="1"/>
  <variable name="x3_362" index="2331" value="1"/>
  <variable name="x4_121" index="2690" value="1"/>
  <variable name="x5_10" index="3179" value="1"/>
  <variable name="x6_390" index="4159" value="1"/>
  <variable name="x7_116" index="4485" value="1"/>
  <variable name="x8_102" index="5071" value="1"/>
  <variable name="x9_274" index="5843" value="1"/>
  <variable name="x10_524" index="6693" value="1"/>
  <variable name="x11_141" index="6910" value="1"/>
  <variable name="x12_277" index="7646" value="1"/>
  <variable name="x13_575" index="8544" value="1"/>
  <variable name="x14_261" index="8830" value="1"/>
  <variable name="x15_311" index="9480" value="1"/>
  <variable name="x16_345" index="10114" value="1"/>
  <variable name="x17_145" index="10514" value="1"/>
  <variable name="x18_177" index="11146" value="1"/>
  <variable name="x19_99" index="11668" value="1"/>
  <variable name="x20_413" index="12582" value="1"/>
  <variable name="x21_587" index="13356" value="1"/>
  <variable name="x22_361" index="13730" value="1"/>
  <variable name="x23_193" index="14162" value="1"/>
  <variable name="x24_237" index="14806" value="1"/>
  <variable name="x25_231" index="15400" value="1"/>
  <variable name="x26_266" index="16035" value="1"/>
  <variable name="x27_330" index="16699" value="1"/>
  <variable name="x28_496" index="17465" value="1"/>
  <variable name="x29_178" index="17747" value="1"/>
  <variable name="x30_101" index="18270" value="1"/>
  <variable name="x31_212" index="18981" value="1"/>
  <variable name="x32_294" index="19663" value="1"/>
  <variable name="x33_214" index="20183" value="1"/>
  <variable name="x34_81" index="20650" value="1"/>
  <variable name="x35_516" index="21685" value="1"/>
  <variable name="x36_200" index="21969" value="1"/>
  <variable name="x37_203" index="22572" value="1"/>
  <variable name="x38_546" index="23515" value="1"/>
  <variable name="x39_21" index="23590" value="1"/>
  <variable name="x40_527" index="24696" value="1"/>
  <variable name="x41_245" index="25014" value="1"/>
  <variable name="x42_3" index="25372" value="1"/>
  <variable name="x43_281" index="26250" value="1"/>
  <variable name="x44_438" index="27007" value="1"/>
  <variable name="x45_22" index="27191" value="1"/>
  <variable name="x46_428" index="28197" value="1"/>
  <variable name="x47_1" index="28370" value="1"/>
  <variable name="x48_272" index="29241" value="1"/>
  <variable name="x49_271" index="29840" value="1"/>
  <variable name="x50_131" index="30300" value="1"/>
  <variable name="x51_57" index="30826" value="1"/>
  <variable name="x52_85" index="31454" value="1"/>
  <variable name="x53_485" index="32454" value="1"/>
  <variable name="x54_224" index="32793" value="1"/>
  <variable name="x55_577" index="33746" value="1"/>
  <variable name="x56_382" index="34151" value="1"/>
  <variable name="x57_466" index="34835" value="1"/>
  <variable name="x58_206" index="35175" value="1"/>
  <variable name="x59_525" index="36094" value="1"/>
  <variable name="x60_103" index="36272" value="1"/>
  <variable name="x61_446" index="37215" value="1"/>
  <variable name="x62_12" index="37381" value="1"/>
  <variable name="x63_138" index="38107" value="1"/>
  <variable name="x64_222" index="38791" value="1"/>
  <variable name="x65_291" index="39460" value="1"/>
  <variable name="x66_338" index="40107" value="1"/>
  <variable name="x67_514" index="40883" value="1"/>
  <variable name="x68_17" index="40986" value="1"/>
  <variable name="x69_559" index="42128" value="1"/>
  <variable name="x70_347" index="42516" value="1"/>
  <variable name="x71_208" index="42977" value="1"/>
  <variable name="x72_572" index="43941" value="1"/>
  <variable name="x73_59" index="44028" value="1"/>
  <variable name="x74_534" index="45103" value="1"/>
  <variable name="x75_377" index="45546" value="1"/>
  <variable name="x76_459" index="46228" value="1"/>
  <variable name="x77_86" index="46455" value="1"/>
  <variable name="x78_315" index="47284" value="1"/>
  <variable name="x79_154" index="47723" value="1"/>
  <variable name="x80_241" index="48410" value="1"/>
  <variable name="x81_171" index="48940" value="1"/>
  <variable name="x82_192" index="49561" value="1"/>
  <variable name="x83_510" index="50479" value="1"/>
  <variable name="x84_152" index="50721" value="1"/>
  <variable name="x85_412" index="51581" value="1"/>
  <variable name="x86_66" index="51835" value="1"/>
  <variable name="x87_473" index="52842" value="1"/>
  <variable name="x88_2" index="52971" value="1"/>
  <variable name="x89_464" index="54033" value="1"/>
  <variable name="x90_591" index="54760" value="1"/>
  <variable name="x91_569" index="55338" value="1"/>
  <variable name="x92_273" index="55642" value="1"/>
  <variable name="x93_4" index="55973" value="1"/>
  <variable name="x94_35" index="56604" value="1"/>
  <variable name="x95_232" index="57401" value="1"/>
  <variable name="x96_321" index="58090" value="1"/>
  <variable name="x97_422" index="58791" value="1"/>
  <variable name="x98_109" index="59078" value="1"/>
  <variable name="x99_163" index="59732" value="1"/>
  <variable name="x100_31" index="60200" value="1"/>
  <variable name="x101_486" index="61255" value="1"/>
  <variable name="x102_388" index="61757" value="1"/>
  <variable name="x103_331" index="62300" value="1"/>
  <variable name="x104_63" index="62632" value="1"/>
  <variable name="x105_391" index="63560" value="1"/>
  <variable name="x106_552" index="64321" value="1"/>
  <variable name="x107_481" index="64850" value="1"/>
  <variable name="x108_64" index="65033" value="1"/>
  <variable name="x109_105" index="65674" value="1"/>
  <variable name="x110_424" index="66593" value="1"/>
  <variable name="x111_450" index="67219" value="1"/>
  <variable name="x112_336" index="67705" value="1"/>
  <variable name="x113_40" index="68009" value="1"/>
  <variable name="x114_478" index="69047" value="1"/>
  <variable name="x115_423" index="69592" value="1"/>
  <variable name="x116_292" index="70061" value="1"/>
  <variable name="x117_418" index="70787" value="1"/>
  <variable name="x118_571" index="71540" value="1"/>
  <variable name="x119_324" index="71893" value="1"/>
  <variable name="x120_255" index="72424" value="1"/>
  <variable name="x121_355" index="73124" value="1"/>
  <variable name="x122_186" index="73555" value="1"/>
  <variable name="x123_36" index="74005" value="1"/>
  <variable name="x124_18" index="74587" value="1"/>
  <variable name="x125_122" index="75291" value="1"/>
  <variable name="x126_594" index="76363" value="1"/>
  <variable name="x127_542" index="76911" value="1"/>
  <variable name="x128_398" index="77367" value="1"/>
  <variable name="x129_498" index="78067" value="1"/>
  <variable name="x130_468" index="78637" value="1"/>
  <variable name="x131_408" index="79177" value="1"/>
  <variable name="x132_427" index="79796" value="1"/>
  <variable name="x133_379" index="80348" value="1"/>
  <variable name="x134_144" index="80713" value="1"/>
  <variable name="x135_471" index="81640" value="1"/>
  <variable name="x136_333" index="82102" value="1"/>
  <variable name="x137_595" index="82964" value="1"/>
  <variable name="x138_460" index="83429" value="1"/>
  <variable name="x139_269" index="83838" value="1"/>
  <variable name="x140_11" index="84180" value="1"/>
  <variable name="x141_201" index="84970" value="1"/>
  <variable name="x142_218" index="85587" value="1"/>
  <variable name="x143_429" index="86398" value="1"/>
  <variable name="x144_173" index="86742" value="1"/>
  <variable name="x145_358" index="87527" value="1"/>
  <variable name="x146_426" index="88195" value="1"/>
  <variable name="x147_341" index="88710" value="1"/>
  <variable name="x148_229" index="89198" value="1"/>
  <variable name="x149_52" index="89621" value="1"/>
  <variable name="x150_293" index="90462" value="1"/>
  <variable name="x151_586" index="91355" value="1"/>
  <variable name="x152_127" index="91496" value="1"/>
  <variable name="x153_469" index="92438" value="1"/>
  <variable name="x154_139" index="92708" value="1"/>
  <variable name="x155_168" index="93337" value="1"/>
  <variable name="x156_421" index="94190" value="1"/>
  <variable name="x157_256" index="94625" value="1"/>
  <variable name="x158_95" index="95064" value="1"/>
  <variable name="x159_359" index="95928" value="1"/>
  <variable name="x160_74" index="96243" value="1"/>
  <variable name="x161_92" index="96861" value="1"/>
  <variable name="x162_142" index="97511" value="1"/>
  <variable name="x163_419" index="98388" value="1"/>
  <variable name="x164_167" index="98736" value="1"/>
  <variable name="x165_339" index="99508" value="1"/>
  <variable name="x166_480" index="100249" value="1"/>
  <variable name="x167_184" index="100553" value="1"/>
  <variable name="x168_98" index="101067" value="1"/>
  <variable name="x169_251" index="101820" value="1"/>
  <variable name="x170_287" index="102456" value="1"/>
  <variable name="x171_399" index="103168" value="1"/>
  <variable name="x172_335" index="103704" value="1"/>
  <variable name="x173_128" index="104097" value="1"/>
  <variable name="x174_62" index="104631" value="1"/>
  <variable name="x175_100" index="105269" value="1"/>
  <variable name="x176_114" index="105883" value="1"/>
  <variable name="x177_535" index="106904" value="1"/>
  <variable name="x178_397" index="107366" value="1"/>
  <variable name="x179_75" index="107644" value="1"/>
  <variable name="x180_585" index="108754" value="1"/>
  <variable name="x181_151" index="108920" value="1"/>
  <variable name="x182_444" index="109813" value="1"/>
  <variable name="x183_76" index="110045" value="1"/>
  <variable name="x184_475" index="111044" value="1"/>
  <variable name="x185_470" index="111639" value="1"/>
  <variable name="x186_452" index="112221" value="1"/>
  <variable name="x187_342" index="112711" value="1"/>
  <variable name="x188_507" index="113476" value="1"/>
  <variable name="x189_297" index="113866" value="1"/>
  <variable name="x190_104" index="114273" value="1"/>
  <variable name="x191_506" index="115275" value="1"/>
  <variable name="x192_505" index="115874" value="1"/>
  <variable name="x193_300" index="116269" value="1"/>
  <variable name="x194_326" index="116895" value="1"/>
  <variable name="x195_517" index="117686" value="1"/>
  <variable name="x196_344" index="118113" value="1"/>
  <variable name="x197_364" index="118733" value="1"/>
  <variable name="x198_44" index="119013" value="1"/>
  <variable name="x199_367" index="119936" value="1"/>
  <variable name="x200_565" index="120734" value="1"/>
  <variable name="x201_28" index="120797" value="1"/>
  <variable name="x202_205" index="121574" value="1"/>
  <variable name="x203_400" index="122369" value="1"/>
  <variable name="x204_593" index="123162" value="1"/>
  <variable name="x205_451" index="123620" value="1"/>
  <variable name="x206_209" index="123978" value="1"/>
  <variable name="x207_267" index="124636" value="1"/>
  <variable name="x208_135" index="125104" value="1"/>
  <variable name="x209_230" index="125799" value="1"/>
  <variable name="x210_320" index="126489" value="1"/>
  <variable name="x211_500" index="127269" value="1"/>
  <variable name="x212_25" index="127394" value="1"/>
  <variable name="x213_226" index="128195" value="1"/>
  <variable name="x214_252" index="128821" value="1"/>
  <variable name="x215_564" index="129733" value="1"/>
  <variable name="x216_352" index="130121" value="1"/>
  <variable name="x217_82" index="130451" value="1"/>
  <variable name="x218_433" index="131402" value="1"/>
  <variable name="x219_20" index="131589" value="1"/>
  <variable name="x220_462" index="132631" value="1"/>
  <variable name="x221_45" index="132814" value="1"/>
  <variable name="x222_566" index="133935" value="1"/>
  <variable name="x223_489" index="134458" value="1"/>
  <variable name="x224_386" index="134955" value="1"/>
  <variable name="x225_349" index="135518" value="1"/>
  <variable name="x226_327" index="136096" value="1"/>
  <variable name="x227_322" index="136691" value="1"/>
  <variable name="x228_548" index="137517" value="1"/>
  <variable name="x229_598" index="138167" value="1"/>
  <variable name="x230_449" index="138618" value="1"/>
  <variable name="x231_590" index="139359" value="1"/>
  <variable name="x232_541" index="139910" value="1"/>
  <variable name="x233_461" index="140430" value="1"/>
  <variable name="x234_83" index="140652" value="1"/>
  <variable name="x235_340" index="141509" value="1"/>
  <variable name="x236_191" index="141960" value="1"/>
  <variable name="x237_385" index="142754" value="1"/>
  <variable name="x238_280" index="143249" value="1"/>
  <variable name="x239_570" index="144139" value="1"/>
  <variable name="x240_356" index="144525" value="1"/>
  <variable name="x241_50" index="144819" value="1"/>
  <variable name="x242_523" index="145892" value="1"/>
  <variable name="x243_246" index="146215" value="1"/>
  <variable name="x244_544" index="147113" value="1"/>
  <variable name="x245_54" index="147223" value="1"/>
  <variable name="x246_589" index="148358" value="1"/>
  <variable name="x247_215" index="148584" value="1"/>
  <variable name="x248_490" index="149459" value="1"/>
  <variable name="x249_441" index="150010" value="1"/>
  <variable name="x250_405" index="150574" value="1"/>
  <variable name="x251_568" index="151337" value="1"/>
  <variable name="x252_417" index="151786" value="1"/>
  <variable name="x253_332" index="152301" value="1"/>
  <variable name="x254_19" index="152588" value="1"/>
  <variable name="x255_487" index="153656" value="1"/>
  <variable name="x256_55" index="153824" value="1"/>
  <variable name="x257_286" index="154655" value="1"/>
  <variable name="x258_584" index="155553" value="1"/>
  <variable name="x259_474" index="156043" value="1"/>
  <variable name="x260_146" index="156315" value="1"/>
  <variable name="x261_456" index="157225" value="1"/>
  <variable name="x262_16" index="157385" value="1"/>
  <variable name="x263_497" index="158466" value="1"/>
  <variable name="x264_465" index="159034" value="1"/>
  <variable name="x265_316" index="159485" value="1"/>
  <variable name="x266_249" index="160018" value="1"/>
  <variable name="x267_120" index="160489" value="1"/>
  <variable name="x268_41" index="161010" value="1"/>
  <variable name="x269_578" index="162147" value="1"/>
  <variable name="x270_77" index="162246" value="1"/>
  <variable name="x271_133" index="162902" value="1"/>
  <variable name="x272_33" index="163402" value="1"/>
  <variable name="x273_24" index="163993" value="1"/>
  <variable name="x274_492" index="165061" value="1"/>
  <variable name="x275_290" index="165459" value="1"/>
  <variable name="x276_520" index="166289" value="1"/>
  <variable name="x277_579" index="166948" value="1"/>
  <variable name="x278_420" index="167389" value="1"/>
  <variable name="x279_513" index="168082" value="1"/>
  <variable name="x280_434" index="168603" value="1"/>
  <variable name="x281_198" index="168967" value="1"/>
  <variable name="x282_375" index="169744" value="1"/>
  <variable name="x283_53" index="170022" value="1"/>
  <variable name="x284_393" index="170962" value="1"/>
  <variable name="x285_298" index="171467" value="1"/>
  <variable name="x286_242" index="172011" value="1"/>
  <variable name="x287_432" index="172801" value="1"/>
  <variable name="x288_302" index="173271" value="1"/>
  <variable name="x289_153" index="173722" value="1"/>
  <variable name="x290_37" index="174206" value="1"/>
  <variable name="x291_236" index="175005" value="1"/>
  <variable name="x292_312" index="175681" value="1"/>
  <variable name="x293_202" index="176171" value="1"/>
  <variable name="x294_353" index="176922" value="1"/>
  <variable name="x295_443" index="177612" value="1"/>
  <variable name="x296_150" index="177919" value="1"/>
  <variable name="x297_225" index="178594" value="1"/>
  <variable name="x298_0" index="178969" value="1"/>
  <variable name="x299_538" index="180107" value="1"/>
  <variable name="x300_567" index="180736" value="1"/>
  <variable name="x301_380" index="181149" value="1"/>
  <variable name="x302_354" index="181723" value="1"/>
  <variable name="x303_179" index="182148" value="1"/>
  <variable name="x304_384" index="182953" value="1"/>
  <variable name="x305_156" index="183325" value="1"/>
  <variable name="x306_463" index="184232" value="1"/>
  <variable name="x307_278" index="184647" value="1"/>
  <variable name="x308_532" index="185501" value="1"/>
  <variable name="x309_368" index="185937" value="1"/>
  <variable name="x310_303" index="186472" value="1"/>
  <variable name="x311_536" index="187305" value="1"/>
  <variable name="x312_89" index="187458" value="1"/>
  <variable name="x313_580" index="188549" value="1"/>
  <variable name="x314_305" index="188874" value="1"/>
  <variable name="x315_289" index="189458" value="1"/>
  <variable name="x316_207" index="189976" value="1"/>
  <variable name="x317_308" index="190677" value="1"/>
  <variable name="x318_334" index="191303" value="1"/>
  <variable name="x319_337" index="191906" value="1"/>
  <variable name="x320_573" index="192742" value="1"/>
  <variable name="x321_521" index="193290" value="1"/>
  <variable name="x322_148" index="193517" value="1"/>
  <variable name="x323_84" index="194053" value="1"/>
  <variable name="x324_488" index="195057" value="1"/>
  <variable name="x325_282" index="195451" value="1"/>
  <variable name="x326_357" index="196126" value="1"/>
  <variable name="x327_582" index="196951" value="1"/>
  <variable name="x328_555" index="197524" value="1"/>
  <variable name="x329_190" index="197759" value="1"/>
  <variable name="x330_78" index="198247" value="1"/>
  <variable name="x331_180" index="198949" value="1"/>
  <variable name="x332_254" index="199623" value="1"/>
  <variable name="x333_187" index="200156" value="1"/>
  <variable name="x334_402" index="200971" value="1"/>
  <variable name="x335_113" index="201282" value="1"/>
  <variable name="x336_126" index="201895" value="1"/>
  <variable name="x337_90" index="202459" value="1"/>
  <variable name="x338_414" index="203383" value="1"/>
  <variable name="x339_56" index="203625" value="1"/>
  <variable name="x340_484" index="204653" value="1"/>
  <variable name="x341_220" index="204989" value="1"/>
  <variable name="x342_147" index="205516" value="1"/>
  <variable name="x343_285" index="206254" value="1"/>
  <variable name="x344_264" index="206833" value="1"/>
  <variable name="x345_533" index="207702" value="1"/>
  <variable name="x346_238" index="208007" value="1"/>
  <variable name="x347_32" index="208401" value="1"/>
  <variable name="x348_71" index="209040" value="1"/>
  <variable name="x349_58" index="209627" value="1"/>
  <variable name="x350_318" index="210487" value="1"/>
  <variable name="x351_165" index="210934" value="1"/>
  <variable name="x352_416" index="211785" value="1"/>
  <variable name="x353_130" index="212099" value="1"/>
  <variable name="x354_211" index="212780" value="1"/>
  <variable name="x355_440" index="213609" value="1"/>
  <variable name="x356_14" index="213783" value="1"/>
  <variable name="x357_106" index="214475" value="1"/>
  <variable name="x358_189" index="215158" value="1"/>
  <variable name="x359_383" index="215952" value="1"/>
  <variable name="x360_169" index="216338" value="1"/>
  <variable name="x361_351" index="217120" value="1"/>
  <variable name="x362_376" index="217745" value="1"/>
  <variable name="x363_134" index="218103" value="1"/>
  <variable name="x364_493" index="219062" value="1"/>
  <variable name="x365_172" index="219341" value="1"/>
  <variable name="x366_551" index="220320" value="1"/>
  <variable name="x367_323" index="220692" value="1"/>
  <variable name="x368_158" index="221127" value="1"/>
  <variable name="x369_270" index="221839" value="1"/>
  <variable name="x370_23" index="222192" value="1"/>
  <variable name="x371_43" index="222812" value="1"/>
  <variable name="x372_7" index="223376" value="1"/>
  <variable name="x373_299" index="224268" value="1"/>
  <variable name="x374_61" index="224630" value="1"/>
  <variable name="x375_411" index="225580" value="1"/>
  <variable name="x376_27" index="225796" value="1"/>
  <variable name="x377_472" index="226841" value="1"/>
  <variable name="x378_515" index="227484" value="1"/>
  <variable name="x379_540" index="228109" value="1"/>
  <variable name="x380_476" index="228645" value="1"/>
  <variable name="x381_529" index="229298" value="1"/>
  <variable name="x382_216" index="229585" value="1"/>
  <variable name="x383_409" index="230378" value="1"/>
  <variable name="x384_136" index="230705" value="1"/>
  <variable name="x385_457" index="231626" value="1"/>
  <variable name="x386_581" index="232350" value="1"/>
  <variable name="x387_196" index="232565" value="1"/>
  <variable name="x388_283" index="233252" value="1"/>
  <variable name="x389_494" index="234063" value="1"/>
  <variable name="x390_94" index="234263" value="1"/>
  <variable name="x391_47" index="234816" value="1"/>
  <variable name="x392_155" index="235524" value="1"/>
  <variable name="x393_213" index="236182" value="1"/>
  <variable name="x394_392" index="236961" value="1"/>
  <variable name="x395_235" index="237404" value="1"/>
  <variable name="x396_556" index="238325" value="1"/>
  <variable name="x397_260" index="238629" value="1"/>
  <variable name="x398_262" index="239231" value="1"/>
  <variable name="x399_576" index="240145" value="1"/>
  <variable name="x400_69" index="240238" value="1"/>
  <variable name="x401_65" index="240834" value="1"/>
  <variable name="x402_503" index="241872" value="1"/>
  <variable name="x403_124" index="242093" value="1"/>
  <variable name="x404_537" index="243106" value="1"/>
  <variable name="x405_372" index="243541" value="1"/>
  <variable name="x406_170" index="243939" value="1"/>
  <variable name="x407_526" index="244895" value="1"/>
  <variable name="x408_599" index="245568" value="1"/>
  <variable name="x409_175" index="245744" value="1"/>
  <variable name="x410_67" index="246236" value="1"/>
  <variable name="x411_8" index="246777" value="1"/>
  <variable name="x412_234" index="247603" value="1"/>
  <variable name="x413_479" index="248448" value="1"/>
  <variable name="x414_313" index="248882" value="1"/>
  <variable name="x415_553" index="249722" value="1"/>
  <variable name="x416_596" index="250365" value="1"/>
  <variable name="x417_309" index="250678" value="1"/>
  <variable name="x418_563" index="251532" value="1"/>
  <variable name="x419_435" index="252004" value="1"/>
  <variable name="x420_477" index="252646" value="1"/>
  <variable name="x421_149" index="252918" value="1"/>
  <variable name="x422_265" index="253634" value="1"/>
  <variable name="x423_455" index="254424" value="1"/>
  <variable name="x424_381" index="254950" value="1"/>
  <variable name="x425_448" index="255617" value="1"/>
  <variable name="x426_26" index="255795" value="1"/>
  <variable name="x427_123" index="256492" value="1"/>
  <variable name="x428_350" index="257319" value="1"/>
  <variable name="x429_162" index="257731" value="1"/>
  <variable name="x430_30" index="258199" value="1"/>
  <variable name="x431_508" index="259277" value="1"/>
  <variable name="x432_518" index="259887" value="1"/>
  <variable name="x433_370" index="260339" value="1"/>
  <variable name="x434_495" index="261064" value="1"/>
  <variable name="x435_458" index="261627" value="1"/>
  <variable name="x436_228" index="261997" value="1"/>
  <variable name="x437_137" index="262506" value="1"/>
  <variable name="x438_119" index="263088" value="1"/>
  <variable name="x439_185" index="263754" value="1"/>
  <variable name="x440_436" index="264605" value="1"/>
  <variable name="x441_574" index="265343" value="1"/>
  <variable name="x442_253" index="265622" value="1"/>
  <variable name="x443_110" index="266079" value="1"/>
  <variable name="x444_325" index="266894" value="1"/>
  <variable name="x445_592" index="267761" value="1"/>
  <variable name="x446_394" index="268163" value="1"/>
  <variable name="x447_425" index="268794" value="1"/>
  <variable name="x448_240" index="269209" value="1"/>
  <variable name="x449_117" index="269686" value="1"/>
  <variable name="x450_188" index="270357" value="1"/>
  <variable name="x451_239" index="271008" value="1"/>
  <variable name="x452_371" index="271740" value="1"/>
  <variable name="x453_317" index="272286" value="1"/>
  <variable name="x454_453" index="273022" value="1"/>
  <variable name="x455_257" index="273426" value="1"/>
  <variable name="x456_80" index="273849" value="1"/>
  <variable name="x457_258" index="274627" value="1"/>
  <variable name="x458_48" index="275017" value="1"/>
  <variable name="x459_304" index="275873" value="1"/>
  <variable name="x460_329" index="276498" value="1"/>
  <variable name="x461_107" index="276876" value="1"/>
  <variable name="x462_166" index="277535" value="1"/>
  <variable name="x463_550" index="278519" value="1"/>
  <variable name="x464_195" index="278764" value="1"/>
  <variable name="x465_561" index="279730" value="1"/>
  <variable name="x466_49" index="279818" value="1"/>
  <variable name="x467_295" index="280664" value="1"/>
  <variable name="x468_366" index="281335" value="1"/>
  <variable name="x469_501" index="282070" value="1"/>
  <variable name="x470_328" index="282497" value="1"/>
  <variable name="x471_259" index="283028" value="1"/>
  <variable name="x472_343" index="283712" value="1"/>
  <variable name="x473_588" index="284557" value="1"/>
  <variable name="x474_504" index="285073" value="1"/>
  <variable name="x475_88" index="285257" value="1"/>
  <variable name="x476_583" index="286352" value="1"/>
  <variable name="x477_454" index="286823" value="1"/>
  <variable name="x478_112" index="287081" value="1"/>
  <variable name="x479_60" index="287629" value="1"/>
  <variable name="x480_161" index="288330" value="1"/>
  <variable name="x481_482" index="289251" value="1"/>
  <variable name="x482_38" index="289407" value="1"/>
  <variable name="x483_431" index="290400" value="1"/>
  <variable name="x484_223" index="290792" value="1"/>
  <variable name="x485_499" index="291668" value="1"/>
  <variable name="x486_174" index="291943" value="1"/>
  <variable name="x487_197" index="292566" value="1"/>
  <variable name="x488_562" index="293531" value="1"/>
  <variable name="x489_396" index="293965" value="1"/>
  <variable name="x490_210" index="294379" value="1"/>
  <variable name="x491_365" index="295134" value="1"/>
  <variable name="x492_51" index="295420" value="1"/>
  <variable name="x493_111" index="296080" value="1"/>
  <variable name="x494_374" index="296943" value="1"/>
  <variable name="x495_403" index="297572" value="1"/>
  <variable name="x496_219" index="297988" value="1"/>
  <variable name="x497_447" index="298816" value="1"/>
  <variable name="x498_243" index="299212" value="1"/>
  <variable name="x499_204" index="299773" value="1"/>
  <variable name="x500_15" index="300184" value="1"/>
  <variable name="x501_34" index="300803" value="1"/>
  <variable name="x502_395" index="301764" value="1"/>
  <variable name="x503_250" index="302219" value="1"/>
  <variable name="x504_406" index="302975" value="1"/>
  <variable name="x505_129" index="303298" value="1"/>
  <variable name="x506_301" index="304070" value="1"/>
  <variable name="x507_360" index="304729" value="1"/>
  <variable name="x508_96" index="305065" value="1"/>
  <variable name="x509_483" index="306052" value="1"/>
  <variable name="x510_68" index="306237" value="1"/>
  <variable name="x511_70" index="306839" value="1"/>
  <variable name="x512_519" index="307888" value="1"/>
  <variable name="x513_509" index="308478" value="1"/>
  <variable name="x514_410" index="308979" value="1"/>
  <variable name="x515_263" index="309432" value="1"/>
  <variable name="x516_369" index="310138" value="1"/>
  <variable name="x517_6" index="310375" value="1"/>
  <variable name="x518_549" index="311518" value="1"/>
  <variable name="x519_389" index="311958" value="1"/>
  <variable name="x520_79" index="312248" value="1"/>
  <variable name="x521_46" index="312815" value="1"/>
  <variable name="x522_543" index="313912" value="1"/>
  <variable name="x523_319" index="314288" value="1"/>
  <variable name="x524_9" index="314578" value="1"/>
  <variable name="x525_442" index="315611" value="1"/>
  <variable name="x526_176" index="315945" value="1"/>
  <variable name="x527_502" index="316871" value="1"/>
  <variable name="x528_387" index="317356" value="1"/>
  <variable name="x529_91" index="317660" value="1"/>
  <variable name="x530_247" index="318416" value="1"/>
  <variable name="x531_310" index="319079" value="1"/>
  <variable name="x532_445" index="319814" value="1"/>
  <variable name="x533_13" index="319982" value="1"/>
  <variable name="x534_279" index="320848" value="1"/>
  <variable name="x535_547" index="321716" value="1"/>
  <variable name="x536_181" index="321950" value="1"/>
  <variable name="x537_307" index="322676" value="1"/>
  <variable name="x538_118" index="323087" value="1"/>
  <variable name="x539_557" index="324126" value="1"/>
  <variable name="x540_511" index="324680" value="1"/>
  <variable name="x541_276" index="325045" value="1"/>
  <variable name="x542_373" index="325742" value="1"/>
  <variable name="x543_430" index="326399" value="1"/>
  <variable name="x544_93" index="326662" value="1"/>
  <variable name="x545_160" index="327329" value="1"/>
  <variable name="x546_183" index="327952" value="1"/>
  <variable name="x547_29" index="328398" value="1"/>
  <variable name="x548_143" index="329112" value="1"/>
  <variable name="x549_407" index="329976" value="1"/>
  <variable name="x550_437" index="330606" value="1"/>
  <variable name="x551_73" index="330842" value="1"/>
  <variable name="x552_531" index="331900" value="1"/>
  <variable name="x553_194" index="332163" value="1"/>
  <variable name="x554_217" index="332786" value="1"/>
  <variable name="x555_125" index="333294" value="1"/>
  <variable name="x556_530" index="334299" value="1"/>
  <variable name="x557_439" index="334808" value="1"/>
  <variable name="x558_597" index="335566" value="1"/>
  <variable name="x559_244" index="335813" value="1"/>
  <variable name="x560_528" index="336697" value="1"/>
  <variable name="x561_72" index="336841" value="1"/>
  <variable name="x562_248" index="337617" value="1"/>
  <variable name="x563_164" index="338133" value="1"/>
  <variable name="x564_157" index="338726" value="1"/>
  <variable name="x565_97" index="339266" value="1"/>
  <variable name="x566_545" index="340314" value="1"/>
  <variable name="x567_522" index="340891" value="1"/>
  <variable name="x568_140" index="341109" value="1"/>
  <variable name="x569_314" index="341883" value="1"/>
  <variable name="x570_233" index="342402" value="1"/>
  <variable name="x571_268" index="343037" value="1"/>
  <variable name="x572_415" index="343784" value="1"/>
  <variable name="x573_159" index="344128" value="1"/>
  <variable name="x574_467" index="345036" value="1"/>
  <variable name="x575_108" index="345277" value="1"/>
  <variable name="x576_512" index="346281" value="1"/>
  <variable name="x577_378" index="346747" value="1"/>
  <variable name="x578_401" index="347370" value="1"/>
  <variable name="x579_221" index="347790" value="1"/>
  <variable name="x580_5" index="348174" value="1"/>
  <variable name="x581_539" index="349308" value="1"/>
  <variable name="x582_363" index="349732" value="1"/>
  <variable name="x583_227" index="350196" value="1"/>
  <variable name="x584_560" index="351129" value="1"/>
  <variable name="x585_199" index="351368" value="1"/>
  <variable name="x586_306" index="352075" value="1"/>
  <variable name="x587_346" index="352715" value="1"/>
  <variable name="x588_42" index="353011" value="1"/>
  <variable name="x589_404" index="353973" value="1"/>
  <variable name="x590_132" index="354301" value="1"/>
  <variable name="x591_87" index="354856" value="1"/>
  <variable name="x592_288" index="355657" value="1"/>
  <variable name="x593_491" index="356460" value="1"/>
  <variable name="x594_348" index="356917" value="1"/>
  <variable name="x595_39" index="357208" value="1"/>
  <variable name="x596_554" index="358323" value="1"/>
  <variable name="x597_558" index="358927" value="1"/>
  <variable name="x598_182" index="359151" value="1"/>
  <variable name="x599_296" index="359865" value="1"/>
  <variable name="k2" index="360171" value="1"/>
  <variable name="u3" index="360185" value="1"/>
  <variable name="u4" index="360186" value="1"/>
  <variable name="u8" index="360190" value="1"/>
  <variable name="u10" index="360192" value="1"/>
  <variable name="u12" index="360194" value="1"/>
 </variables>
</CPLEXSolution>
